Reading model...
...model read.
creating competitive generators file...
...competitive generators recorded.
Loading data...
.. real-time data read.
Compiling instance...
...instance created.
Creating Offer Mitigation (model will solve as dispatch if TRUE)...
NOTE: storage offers will not be mitigated
...storage offer mitigation file created
Converting model to MPEC...
...converted
NOTE: initial MIP solve with only storage competitive to get feasible solution
Solving...

Welcome to IBM(R) ILOG(R) CPLEX(R) Interactive Optimizer 12.9.0.0
  with Simplex, Mixed Integer & Barrier Optimizers
5725-A06 5725-A29 5724-Y48 5724-Y49 5724-Y54 5724-Y55 5655-Y21
Copyright IBM Corp. 1988, 2019.  All Rights Reserved.

Type 'help' for a list of available commands.
Type 'help' followed by a command name for more
information on commands.

CPLEX> Logfile 'cplex.log' closed.
Logfile 'C:\Users\llavin\Desktop\test826\logs\tmpk_ublanz.cplex.log' open.
CPLEX> New value for parallel optimization mode: -1
CPLEX> New value for mixed integer optimality gap tolerance: 0.01
CPLEX> New value for feasibility tolerance: 1e-09
CPLEX> New value for deterministic time limit in ticks: 100000
CPLEX> Problem 'C:\Users\llavin\Desktop\test826\logs\tmph70o8zkh.pyomo.lp' read.
Read time = 0.53 sec. (28.52 ticks)
CPLEX> Problem name         : C:\Users\llavin\Desktop\test826\logs\tmph70o8zkh.pyomo.lp
Objective sense      : Maximize
Variables            :  107781  [Nneg: 1,  Box: 44056,  Free: 8928,
                                 Binary: 54796]
Objective nonzeros   :   17376
Linear constraints   :  246901  [Less: 82866,  Greater: 118424,  Equal: 45611]
  Nonzeros           :  618076
  RHS nonzeros       :  134882

Variables            : Min LB: -5000.000        Max UB: 1000000.       
Objective nonzeros   : Min   : 0.008333333      Max   : 208.3333       
Linear constraints   :
  Nonzeros           : Min   : 0.008333333      Max   : 1000000.       
  RHS nonzeros       : Min   : 0.008333333      Max   : 1000000.       
CPLEX> CPXPARAM_Parallel                                -1
CPXPARAM_Simplex_Tolerances_Feasibility          1.0000000000000001e-09
CPXPARAM_DetTimeLimit                            100000
CPXPARAM_MIP_Tolerances_MIPGap                   0.01
Tried aggregator 3 times.
MIP Presolve eliminated 181409 rows and 41451 columns.
MIP Presolve added 6047 rows and 0 columns.
MIP Presolve modified 50547 coefficients.
Aggregator did 25873 substitutions.
Reduced MIP has 45666 rows, 38825 columns, and 156485 nonzeros.
Reduced MIP has 15285 binaries, 0 generals, 0 SOSs, and 0 indicators.
Presolve time = 0.64 sec. (381.94 ticks)
Probing fixed 759 vars, tightened 8885 bounds.
Probing time = 0.39 sec. (14.67 ticks)
Tried aggregator 2 times.
MIP Presolve eliminated 1712 rows and 1520 columns.
MIP Presolve modified 5358 coefficients.
Aggregator did 62 substitutions.
Reduced MIP has 43892 rows, 37243 columns, and 151355 nonzeros.
Reduced MIP has 14525 binaries, 0 generals, 0 SOSs, and 0 indicators.
Presolve time = 0.23 sec. (220.31 ticks)
Probing fixed 1 vars, tightened 545 bounds.
Probing time = 0.52 sec. (18.95 ticks)
Clique table members: 87771.
MIP emphasis: balance optimality and feasibility.
MIP search method: dynamic search.
Parallel mode: opportunistic, using up to 32 threads.
Root relaxation solution time = 1.14 sec. (1791.38 ticks)

        Nodes                                         Cuts/
   Node  Left     Objective  IInf  Best Integer    Best Bound    ItCnt     Gap

      0     0     2557.2182   375                   2557.2182    11030         
*     0     0      integral     0     2557.2182     2557.2182    11049    0.00%
Elapsed time = 4.89 sec. (4272.16 ticks, tree = 0.01 MB, solutions = 1)

Root node processing (before b&c):
  Real time             =    4.92 sec. (4276.04 ticks)
Parallel b&c, 32 threads:
  Real time             =    0.00 sec. (0.00 ticks)
  Sync time (average)   =    0.00 sec.
  Wait time (average)   =    0.00 sec.
                          ------------
Total (root+branch&cut) =    4.92 sec. (4276.04 ticks)

Solution pool: 1 solution saved.

MIP - Integer optimal solution:  Objective =  2.5572182484e+03
Solution time =    4.94 sec.  Iterations = 11049  Nodes = 0
Deterministic time = 4276.35 ticks  (866.18 ticks/sec)

CPLEX> Incumbent solution written to file 'C:\Users\llavin\Desktop\test826\logs\tmp95gi6go5.cplex.sol'.
CPLEX> NOTE: no warmstart specified for MIP iteration, default behavior is true
NOTE: resolving with all competitive generators using storage-only solution to warmstart
Solving...

Welcome to IBM(R) ILOG(R) CPLEX(R) Interactive Optimizer 12.9.0.0
  with Simplex, Mixed Integer & Barrier Optimizers
5725-A06 5725-A29 5724-Y48 5724-Y49 5724-Y54 5724-Y55 5655-Y21
Copyright IBM Corp. 1988, 2019.  All Rights Reserved.

Type 'help' for a list of available commands.
Type 'help' followed by a command name for more
information on commands.

CPLEX> Logfile 'cplex.log' closed.
Logfile 'C:\Users\llavin\Desktop\test826\logs\tmpmu8oral8.cplex.log' open.
CPLEX> New value for parallel optimization mode: -1
CPLEX> New value for mixed integer optimality gap tolerance: 0.01
CPLEX> New value for feasibility tolerance: 1e-09
CPLEX> New value for deterministic time limit in ticks: 100000
CPLEX> Problem 'C:\Users\llavin\Desktop\test826\logs\tmpr_jl3_y3.pyomo.lp' read.
Read time = 0.52 sec. (28.56 ticks)
CPLEX> MIP start file 'C:\Users\llavin\Desktop\test826\logs\tmp4ji5amvm.cplex.mst' read.
CPLEX> Problem name         : C:\Users\llavin\Desktop\test826\logs\tmpr_jl3_y3.pyomo.lp
Objective sense      : Maximize
Variables            :  109221  [Nneg: 1,  Box: 45496,  Free: 8928,
                                 Binary: 54796]
Objective nonzeros   :   18768
Linear constraints   :  246901  [Less: 82866,  Greater: 118424,  Equal: 45611]
  Nonzeros           :  618076
  RHS nonzeros       :  134882

Variables            : Min LB: -5000.000        Max UB: 1000000.       
Objective nonzeros   : Min   : 0.008333333      Max   : 208.3333       
Linear constraints   :
  Nonzeros           : Min   : 0.008333333      Max   : 1000000.       
  RHS nonzeros       : Min   : 0.008333333      Max   : 1000000.       
CPLEX> CPXPARAM_Parallel                                -1
CPXPARAM_Simplex_Tolerances_Feasibility          1.0000000000000001e-09
CPXPARAM_DetTimeLimit                            100000
CPXPARAM_MIP_Tolerances_MIPGap                   0.01
1 of 1 MIP starts provided solutions.
MIP start 'm1' defined initial solution with objective 22280.3820.
Tried aggregator 3 times.
MIP Presolve eliminated 181409 rows and 42891 columns.
MIP Presolve added 6047 rows and 0 columns.
MIP Presolve modified 50547 coefficients.
Aggregator did 25873 substitutions.
Reduced MIP has 45666 rows, 38825 columns, and 156485 nonzeros.
Reduced MIP has 15285 binaries, 0 generals, 0 SOSs, and 0 indicators.
Presolve time = 0.63 sec. (382.65 ticks)
Probing fixed 759 vars, tightened 8885 bounds.
Probing time = 0.34 sec. (14.67 ticks)
Tried aggregator 2 times.
MIP Presolve eliminated 1712 rows and 1520 columns.
MIP Presolve modified 5358 coefficients.
Aggregator did 62 substitutions.
Reduced MIP has 43892 rows, 37243 columns, and 151355 nonzeros.
Reduced MIP has 14525 binaries, 0 generals, 0 SOSs, and 0 indicators.
Presolve time = 0.23 sec. (220.32 ticks)
Probing fixed 1 vars, tightened 534 bounds.
Probing time = 0.50 sec. (18.68 ticks)
Clique table members: 87701.
MIP emphasis: balance optimality and feasibility.
MIP search method: dynamic search.
Parallel mode: opportunistic, using up to 32 threads.
Root relaxation solution time = 1.06 sec. (1822.25 ticks)

        Nodes                                         Cuts/
   Node  Left     Objective  IInf  Best Integer    Best Bound    ItCnt     Gap

*     0+    0                        22280.3820   1.21441e+07              --- 
      0     0    22315.8340   416    22280.3820    22315.8340     9879    0.16%

Root node processing (before b&c):
  Real time             =    3.70 sec. (3035.29 ticks)
Parallel b&c, 32 threads:
  Real time             =    0.00 sec. (0.00 ticks)
  Sync time (average)   =    0.00 sec.
  Wait time (average)   =    0.00 sec.
                          ------------
Total (root+branch&cut) =    3.70 sec. (3035.29 ticks)

Solution pool: 1 solution saved.

MIP - Integer optimal, tolerance (0.01/1e-06):  Objective =  2.2280381995e+04
Current MIP best bound =  2.2315834031e+04 (gap = 35.452, 0.16%)
Solution time =    3.72 sec.  Iterations = 9879  Nodes = 0 (1)
Deterministic time = 3035.60 ticks  (816.24 ticks/sec)

CPLEX> Incumbent solution written to file 'C:\Users\llavin\Desktop\test826\logs\tmpakmuhpnj.cplex.sol'.
CPLEX> Exporting results... 
